18 89
1 3
11 8
7 3
5 17
4 10
4 5
2 8
15 4
1 2
12 15
12 16
10 1
15 9
9 10
6 1
17 16
2 5
2 9
0 5
13 14
12 13
12 0
7 1
7 12
13 11
17 14
11 5
2 0
13 1
0 4
0 15
6 11
9 1
9 11
14 16
3 15
1 14
16 5
13 4
7 6
14 3
8 17
16 9
14 2
16 0
14 4
4 8
15 16
6 16
15 14
15 11
17 7
7 8
14 11
4 17
13 10
3 10
0 3
2 12
5 13
5 9
14 10
7 11
3 2
2 15
13 8
8 3
4 9
16 7
6 14
4 2
0 11
2 16
17 12
0 13
15 17
17 10
12 5
12 6
3 11
0 14
11 10
17 11
12 8
17 1
15 7
2 7
13 2
12 9
